p cnf 288 1130
-39 -44 -50 0
-27 -47 45 0
-2 36 13 0
-34 -2 -16 0
26 22 -8 0
-11 -37 47 0
-50 -8 -38 0
18 22 35 0
20 -28 -24 0
-49 -40 -44 0
19 32 -4 0
-4 -47 45 0
-40 49 22 0
-9 -43 42 0
31 27 -24 0
48 44 -7 0
-45 -24 -18 0
5 -39 -10 0
-25 40 29 0
-9 -6 -34 0
-2 46 37 0
10 -11 -12 0
34 -42 15 0
-34 27 -45 0
-15 43 -9 0
47 -38 -28 0
31 -16 -12 0
49 -42 -41 0
-47 2 -17 0
-16 32 -20 0
21 -1 -3 0
15 -44 -20 0
-34 -27 18 0
-42 39 -1 0
-47 -21 17 0
-28 -50 14 0
17 26 16 0
49 6 -40 0
34 -42 -10 0
-33 6 -14 0
40 -44 -9 0
48 -20 2 0
-48 37 8 0
6 42 -45 0
31 44 45 0
-38 17 25 0
-24 -3 -4 0
20 49 29 0
45 -36 -14 0
13 -16 33 0
47 27 -39 0
35 23 -6 0
-10 22 40 0
-23 18 6 0
-11 49 13 0
-28 -39 -11 0
20 -48 -31 0
-15 -19 47 0
-15 21 -4 0
-12 -13 40 0
-26 -6 -38 0
50 -46 -30 0
27 -40 28 0
18 2 37 0
24 -21 46 0
16 47 -46 0
-34 -23 -9 0
40 31 -19 0
-8 -9 41 0
-29 -48 41 0
-24 -28 -16 0
-33 20 7 0
50 24 45 0
40 31 28 0
-26 -34 13 0
-15 -6 -50 0
-24 -8 -5 0
16 49 25 0
-43 4 -34 0
44 20 -19 0
-12 45 26 0
43 42 37 0
-25 20 17 0
-27 3 -44 0
-18 31 -35 0
-17 -14 -42 0
36 4 -37 0
-21 33 -4 0
23 10 -36 0
-35 15 17 0
13 -9 44 0
48 -30 31 0
-10 -49 22 0
36 -48 38 0
29 -28 -31 0
20 -1 -24 0
-40 14 -5 0
-41 -3 25 0
-15 26 -39 0
15 2 -16 0
-23 -18 6 0
-32 -35 -31 0
-41 -4 8 0
-19 2 -1 0
4 45 32 0
-26 -46 -39 0
-41 -43 -48 0
3 -19 -27 0
50 -36 30 0
-19 4 24 0
-37 28 38 0
-32 44 33 0
-41 22 -46 0
-27 20 -46 0
6 -17 40 0
-16 46 31 0
38 -35 30 0
-37 -38 26 0
39 -5 -34 0
-32 1 -41 0
24 34 -10 0
7 39 -48 0
46 48 -13 0
-18 43 38 0
32 26 -36 0
-47 9 50 0
-8 39 -21 0
-21 -36 25 0
-10 -42 25 0
46 27 12 0
-5 -3 -50 0
-21 23 -31 0
25 17 -24 0
-23 1 -45 0
19 -25 -36 0
9 48 -8 0
44 -36 -32 0
26 5 -18 0
38 -42 11 0
-38 4 12 0
-27 -33 2 0
-37 -35 -15 0
-9 3 43 0
-36 23 -9 0
41 -32 -26 0
-26 -33 19 0
-9 22 -33 0
50 -47 -48 0
19 3 24 0
38 11 18 0
-4 5 51 0
4 5 -51 0
-4 -5 -51 0
4 -5 51 0
9 -10 52 0
-9 -10 -52 0
9 10 -52 0
-9 10 52 0
11 -13 53 0
-11 -13 -53 0
11 13 -53 0
-11 13 53 0
-14 -18 54 0
14 -18 -54 0
-14 18 -54 0
14 18 54 0
19 22 55 0
-19 22 -55 0
19 -22 -55 0
-19 -22 55 0
-23 25 56 0
23 25 -56 0
-23 -25 -56 0
23 -25 56 0
26 27 57 0
-26 27 -57 0
26 -27 -57 0
-26 -27 57 0
-32 34 58 0
32 34 -58 0
-32 -34 -58 0
32 -34 58 0
35 40 59 0
-35 40 -59 0
35 -40 -59 0
-35 -40 59 0
-44 -48 60 0
44 -48 -60 0
-44 48 -60 0
44 48 60 0
-49 -50 61 0
49 -50 -61 0
-49 50 -61 0
49 50 61 0
51 -52 62 0
-51 -52 -62 0
51 52 -62 0
-51 52 62 0
53 -54 63 0
-53 -54 -63 0
53 54 -63 0
-53 54 63 0
55 -56 64 0
-55 -56 -64 0
55 56 -64 0
-55 56 64 0
57 -58 65 0
-57 -58 -65 0
57 58 -65 0
-57 58 65 0
59 -60 66 0
-59 -60 -66 0
59 60 -66 0
-59 60 66 0
61 -62 67 0
-61 -62 -67 0
61 62 -67 0
-61 62 67 0
63 -64 68 0
-63 -64 -68 0
63 64 -68 0
-63 64 68 0
65 -66 69 0
-65 -66 -69 0
65 66 -69 0
-65 66 69 0
-67 -68 69 0
67 -68 -69 0
-67 68 -69 0
67 68 69 0
1 2 70 0
-1 2 -70 0
1 -2 -70 0
-1 -2 70 0
3 4 71 0
-3 4 -71 0
3 -4 -71 0
-3 -4 71 0
5 6 72 0
-5 6 -72 0
5 -6 -72 0
-5 -6 72 0
-8 12 73 0
8 12 -73 0
-8 -12 -73 0
8 -12 73 0
13 14 74 0
-13 14 -74 0
13 -14 -74 0
-13 -14 74 0
15 17 75 0
-15 17 -75 0
15 -17 -75 0
-15 -17 75 0
-24 26 76 0
24 26 -76 0
-24 -26 -76 0
24 -26 76 0
-27 29 77 0
27 29 -77 0
-27 -29 -77 0
27 -29 77 0
30 33 78 0
-30 33 -78 0
30 -33 -78 0
-30 -33 78 0
35 -38 79 0
-35 -38 -79 0
35 38 -79 0
-35 38 79 0
41 -42 80 0
-41 -42 -80 0
41 42 -80 0
-41 42 80 0
-44 45 81 0
44 45 -81 0
-44 -45 -81 0
44 -45 81 0
69 -70 82 0
-69 -70 -82 0
69 70 -82 0
-69 70 82 0
71 -72 83 0
-71 -72 -83 0
71 72 -83 0
-71 72 83 0
73 -74 84 0
-73 -74 -84 0
73 74 -84 0
-73 74 84 0
75 -76 85 0
-75 -76 -85 0
75 76 -85 0
-75 76 85 0
77 -78 86 0
-77 -78 -86 0
77 78 -86 0
-77 78 86 0
79 -80 87 0
-79 -80 -87 0
79 80 -87 0
-79 80 87 0
81 -82 88 0
-81 -82 -88 0
81 82 -88 0
-81 82 88 0
83 -84 89 0
-83 -84 -89 0
83 84 -89 0
-83 84 89 0
85 -86 90 0
-85 -86 -90 0
85 86 -90 0
-85 86 90 0
87 -88 91 0
-87 -88 -91 0
87 88 -91 0
-87 88 91 0
89 -90 92 0
-89 -90 -92 0
89 90 -92 0
-89 90 92 0
91 92 0
-91 -92 0
2 -4 93 0
-2 -4 -93 0
2 4 -93 0
-2 4 93 0
5 -6 94 0
-5 -6 -94 0
5 6 -94 0
-5 6 94 0
-7 8 95 0
7 8 -95 0
-7 -8 -95 0
7 -8 95 0
-10 -12 96 0
10 -12 -96 0
-10 12 -96 0
10 12 96 0
13 19 97 0
-13 19 -97 0
13 -19 -97 0
-13 -19 97 0
-21 22 98 0
21 22 -98 0
-21 -22 -98 0
21 -22 98 0
-23 -26 99 0
23 -26 -99 0
-23 26 -99 0
23 26 99 0
-27 -29 100 0
27 -29 -100 0
-27 29 -100 0
27 29 100 0
30 -35 101 0
-30 -35 -101 0
30 35 -101 0
-30 35 101 0
-36 -38 102 0
36 -38 -102 0
-36 38 -102 0
36 38 102 0
39 41 103 0
-39 41 -103 0
39 -41 -103 0
-39 -41 103 0
-45 -46 104 0
45 -46 -104 0
-45 46 -104 0
45 46 104 0
92 -93 105 0
-92 -93 -105 0
92 93 -105 0
-92 93 105 0
94 -95 106 0
-94 -95 -106 0
94 95 -106 0
-94 95 106 0
96 -97 107 0
-96 -97 -107 0
96 97 -107 0
-96 97 107 0
98 -99 108 0
-98 -99 -108 0
98 99 -108 0
-98 99 108 0
100 -101 109 0
-100 -101 -109 0
100 101 -109 0
-100 101 109 0
102 -103 110 0
-102 -103 -110 0
102 103 -110 0
-102 103 110 0
104 -105 111 0
-104 -105 -111 0
104 105 -111 0
-104 105 111 0
106 -107 112 0
-106 -107 -112 0
106 107 -112 0
-106 107 112 0
108 -109 113 0
-108 -109 -113 0
108 109 -113 0
-108 109 113 0
110 -111 114 0
-110 -111 -114 0
110 111 -114 0
-110 111 114 0
112 -113 115 0
-112 -113 -115 0
112 113 -115 0
-112 113 115 0
114 115 0
-114 -115 0
1 3 116 0
-1 3 -116 0
1 -3 -116 0
-1 -3 116 0
-8 -10 117 0
8 -10 -117 0
-8 10 -117 0
8 10 117 0
11 -13 118 0
-11 -13 -118 0
11 13 -118 0
-11 13 118 0
-17 20 119 0
17 20 -119 0
-17 -20 -119 0
17 -20 119 0
-23 -25 120 0
23 -25 -120 0
-23 25 -120 0
23 25 120 0
26 -27 121 0
-26 -27 -121 0
26 27 -121 0
-26 27 121 0
28 -29 122 0
-28 -29 -122 0
28 29 -122 0
-28 29 122 0
-32 -33 123 0
32 -33 -123 0
-32 33 -123 0
32 33 123 0
-34 -35 124 0
34 -35 -124 0
-34 35 -124 0
34 35 124 0
-36 37 125 0
36 37 -125 0
-36 -37 -125 0
36 -37 125 0
-39 -40 126 0
39 -40 -126 0
-39 40 -126 0
39 40 126 0
41 42 127 0
-41 42 -127 0
41 -42 -127 0
-41 -42 127 0
44 -47 128 0
-44 -47 -128 0
44 47 -128 0
-44 47 128 0
48 49 129 0
-48 49 -129 0
48 -49 -129 0
-48 -49 129 0
115 -116 130 0
-115 -116 -130 0
115 116 -130 0
-115 116 130 0
117 -118 131 0
-117 -118 -131 0
117 118 -131 0
-117 118 131 0
119 -120 132 0
-119 -120 -132 0
119 120 -132 0
-119 120 132 0
121 -122 133 0
-121 -122 -133 0
121 122 -133 0
-121 122 133 0
123 -124 134 0
-123 -124 -134 0
123 124 -134 0
-123 124 134 0
125 -126 135 0
-125 -126 -135 0
125 126 -135 0
-125 126 135 0
127 -128 136 0
-127 -128 -136 0
127 128 -136 0
-127 128 136 0
129 -130 137 0
-129 -130 -137 0
129 130 -137 0
-129 130 137 0
131 -132 138 0
-131 -132 -138 0
131 132 -138 0
-131 132 138 0
133 -134 139 0
-133 -134 -139 0
133 134 -139 0
-133 134 139 0
135 -136 140 0
-135 -136 -140 0
135 136 -140 0
-135 136 140 0
137 -138 141 0
-137 -138 -141 0
137 138 -141 0
-137 138 141 0
139 -140 142 0
-139 -140 -142 0
139 140 -142 0
-139 140 142 0
141 142 0
-141 -142 0
1 2 143 0
-1 2 -143 0
1 -2 -143 0
-1 -2 143 0
-7 12 144 0
7 12 -144 0
-7 -12 -144 0
7 -12 144 0
-15 16 145 0
15 16 -145 0
-15 -16 -145 0
15 -16 145 0
-17 21 146 0
17 21 -146 0
-17 -21 -146 0
17 -21 146 0
-22 -23 147 0
22 -23 -147 0
-22 23 -147 0
22 23 147 0
-30 -32 148 0
30 -32 -148 0
-30 32 -148 0
30 32 148 0
37 40 149 0
-37 40 -149 0
37 -40 -149 0
-37 -40 149 0
41 43 150 0
-41 43 -150 0
41 -43 -150 0
-41 -43 150 0
-44 45 151 0
44 45 -151 0
-44 -45 -151 0
44 -45 151 0
-46 47 152 0
46 47 -152 0
-46 -47 -152 0
46 -47 152 0
142 -143 153 0
-142 -143 -153 0
142 143 -153 0
-142 143 153 0
144 -145 154 0
-144 -145 -154 0
144 145 -154 0
-144 145 154 0
146 -147 155 0
-146 -147 -155 0
146 147 -155 0
-146 147 155 0
148 -149 156 0
-148 -149 -156 0
148 149 -156 0
-148 149 156 0
150 -151 157 0
-150 -151 -157 0
150 151 -157 0
-150 151 157 0
152 -153 158 0
-152 -153 -158 0
152 153 -158 0
-152 153 158 0
154 -155 159 0
-154 -155 -159 0
154 155 -159 0
-154 155 159 0
156 -157 160 0
-156 -157 -160 0
156 157 -160 0
-156 157 160 0
-158 -159 160 0
158 -159 -160 0
-158 159 -160 0
158 159 160 0
-1 -2 161 0
1 -2 -161 0
-1 2 -161 0
1 2 161 0
3 5 162 0
-3 5 -162 0
3 -5 -162 0
-3 -5 162 0
-6 -7 163 0
6 -7 -163 0
-6 7 -163 0
6 7 163 0
8 10 164 0
-8 10 -164 0
8 -10 -164 0
-8 -10 164 0
-12 -13 165 0
12 -13 -165 0
-12 13 -165 0
12 13 165 0
-15 -16 166 0
15 -16 -166 0
-15 16 -166 0
15 16 166 0
-17 18 167 0
17 18 -167 0
-17 -18 -167 0
17 -18 167 0
-19 21 168 0
19 21 -168 0
-19 -21 -168 0
19 -21 168 0
-22 23 169 0
22 23 -169 0
-22 -23 -169 0
22 -23 169 0
-25 -26 170 0
25 -26 -170 0
-25 26 -170 0
25 26 170 0
27 -28 171 0
-27 -28 -171 0
27 28 -171 0
-27 28 171 0
-29 30 172 0
29 30 -172 0
-29 -30 -172 0
29 -30 172 0
31 -33 173 0
-31 -33 -173 0
31 33 -173 0
-31 33 173 0
36 37 174 0
-36 37 -174 0
36 -37 -174 0
-36 -37 174 0
-40 -41 175 0
40 -41 -175 0
-40 41 -175 0
40 41 175 0
-42 -45 176 0
42 -45 -176 0
-42 45 -176 0
42 45 176 0
-46 47 177 0
46 47 -177 0
-46 -47 -177 0
46 -47 177 0
161 -162 178 0
-161 -162 -178 0
161 162 -178 0
-161 162 178 0
163 -164 179 0
-163 -164 -179 0
163 164 -179 0
-163 164 179 0
165 -166 180 0
-165 -166 -180 0
165 166 -180 0
-165 166 180 0
167 -168 181 0
-167 -168 -181 0
167 168 -181 0
-167 168 181 0
169 -170 182 0
-169 -170 -182 0
169 170 -182 0
-169 170 182 0
171 -172 183 0
-171 -172 -183 0
171 172 -183 0
-171 172 183 0
173 -174 184 0
-173 -174 -184 0
173 174 -184 0
-173 174 184 0
175 -176 185 0
-175 -176 -185 0
175 176 -185 0
-175 176 185 0
177 -178 186 0
-177 -178 -186 0
177 178 -186 0
-177 178 186 0
179 -180 187 0
-179 -180 -187 0
179 180 -187 0
-179 180 187 0
181 -182 188 0
-181 -182 -188 0
181 182 -188 0
-181 182 188 0
183 -184 189 0
-183 -184 -189 0
183 184 -189 0
-183 184 189 0
185 -186 190 0
-185 -186 -190 0
185 186 -190 0
-185 186 190 0
187 -188 191 0
-187 -188 -191 0
187 188 -191 0
-187 188 191 0
-189 -190 191 0
189 -190 -191 0
-189 190 -191 0
189 190 191 0
2 -3 192 0
-2 -3 -192 0
2 3 -192 0
-2 3 192 0
5 -7 193 0
-5 -7 -193 0
5 7 -193 0
-5 7 193 0
-11 -12 194 0
11 -12 -194 0
-11 12 -194 0
11 12 194 0
13 15 195 0
-13 15 -195 0
13 -15 -195 0
-13 -15 195 0
-16 19 196 0
16 19 -196 0
-16 -19 -196 0
16 -19 196 0
-25 -26 197 0
25 -26 -197 0
-25 26 -197 0
25 26 197 0
-27 29 198 0
27 29 -198 0
-27 -29 -198 0
27 -29 198 0
-33 34 199 0
33 34 -199 0
-33 -34 -199 0
33 -34 199 0
-35 39 200 0
35 39 -200 0
-35 -39 -200 0
35 -39 200 0
41 -42 201 0
-41 -42 -201 0
41 42 -201 0
-41 42 201 0
43 -45 202 0
-43 -45 -202 0
43 45 -202 0
-43 45 202 0
-48 49 203 0
48 49 -203 0
-48 -49 -203 0
48 -49 203 0
191 -192 204 0
-191 -192 -204 0
191 192 -204 0
-191 192 204 0
193 -194 205 0
-193 -194 -205 0
193 194 -205 0
-193 194 205 0
195 -196 206 0
-195 -196 -206 0
195 196 -206 0
-195 196 206 0
197 -198 207 0
-197 -198 -207 0
197 198 -207 0
-197 198 207 0
199 -200 208 0
-199 -200 -208 0
199 200 -208 0
-199 200 208 0
201 -202 209 0
-201 -202 -209 0
201 202 -209 0
-201 202 209 0
203 -204 210 0
-203 -204 -210 0
203 204 -210 0
-203 204 210 0
205 -206 211 0
-205 -206 -211 0
205 206 -211 0
-205 206 211 0
207 -208 212 0
-207 -208 -212 0
207 208 -212 0
-207 208 212 0
209 -210 213 0
-209 -210 -213 0
209 210 -213 0
-209 210 213 0
211 -212 214 0
-211 -212 -214 0
211 212 -214 0
-211 212 214 0
213 214 0
-213 -214 0
1 2 215 0
-1 2 -215 0
1 -2 -215 0
-1 -2 215 0
4 -11 216 0
-4 -11 -216 0
4 11 -216 0
-4 11 216 0
12 -15 217 0
-12 -15 -217 0
12 15 -217 0
-12 15 217 0
16 18 218 0
-16 18 -218 0
16 -18 -218 0
-16 -18 218 0
-19 -20 219 0
19 -20 -219 0
-19 20 -219 0
19 20 219 0
21 -22 220 0
-21 -22 -220 0
21 22 -220 0
-21 22 220 0
-24 -25 221 0
24 -25 -221 0
-24 25 -221 0
24 25 221 0
26 29 222 0
-26 29 -222 0
26 -29 -222 0
-26 -29 222 0
-31 -35 223 0
31 -35 -223 0
-31 35 -223 0
31 35 223 0
-36 39 224 0
36 39 -224 0
-36 -39 -224 0
36 -39 224 0
40 41 225 0
-40 41 -225 0
40 -41 -225 0
-40 -41 225 0
-45 47 226 0
45 47 -226 0
-45 -47 -226 0
45 -47 226 0
215 -216 227 0
-215 -216 -227 0
215 216 -227 0
-215 216 227 0
217 -218 228 0
-217 -218 -228 0
217 218 -228 0
-217 218 228 0
219 -220 229 0
-219 -220 -229 0
219 220 -229 0
-219 220 229 0
221 -222 230 0
-221 -222 -230 0
221 222 -230 0
-221 222 230 0
223 -224 231 0
-223 -224 -231 0
223 224 -231 0
-223 224 231 0
225 -226 232 0
-225 -226 -232 0
225 226 -232 0
-225 226 232 0
227 -228 233 0
-227 -228 -233 0
227 228 -233 0
-227 228 233 0
229 -230 234 0
-229 -230 -234 0
229 230 -234 0
-229 230 234 0
231 -232 235 0
-231 -232 -235 0
231 232 -235 0
-231 232 235 0
-233 -234 235 0
233 -234 -235 0
-233 234 -235 0
233 234 235 0
1 -2 236 0
-1 -2 -236 0
1 2 -236 0
-1 2 236 0
-3 -7 237 0
3 -7 -237 0
-3 7 -237 0
3 7 237 0
8 -9 238 0
-8 -9 -238 0
8 9 -238 0
-8 9 238 0
-10 -11 239 0
10 -11 -239 0
-10 11 -239 0
10 11 239 0
-13 -17 240 0
13 -17 -240 0
-13 17 -240 0
13 17 240 0
-18 19 241 0
18 19 -241 0
-18 -19 -241 0
18 -19 241 0
-22 23 242 0
22 23 -242 0
-22 -23 -242 0
22 -23 242 0
25 -26 243 0
-25 -26 -243 0
25 26 -243 0
-25 26 243 0
-27 28 244 0
27 28 -244 0
-27 -28 -244 0
27 -28 244 0
33 -34 245 0
-33 -34 -245 0
33 34 -245 0
-33 34 245 0
38 39 246 0
-38 39 -246 0
38 -39 -246 0
-38 -39 246 0
40 41 247 0
-40 41 -247 0
40 -41 -247 0
-40 -41 247 0
-42 -43 248 0
42 -43 -248 0
-42 43 -248 0
42 43 248 0
-44 -46 249 0
44 -46 -249 0
-44 46 -249 0
44 46 249 0
-47 -48 250 0
47 -48 -250 0
-47 48 -250 0
47 48 250 0
235 -236 251 0
-235 -236 -251 0
235 236 -251 0
-235 236 251 0
237 -238 252 0
-237 -238 -252 0
237 238 -252 0
-237 238 252 0
239 -240 253 0
-239 -240 -253 0
239 240 -253 0
-239 240 253 0
241 -242 254 0
-241 -242 -254 0
241 242 -254 0
-241 242 254 0
243 -244 255 0
-243 -244 -255 0
243 244 -255 0
-243 244 255 0
245 -246 256 0
-245 -246 -256 0
245 246 -256 0
-245 246 256 0
247 -248 257 0
-247 -248 -257 0
247 248 -257 0
-247 248 257 0
249 -250 258 0
-249 -250 -258 0
249 250 -258 0
-249 250 258 0
251 -252 259 0
-251 -252 -259 0
251 252 -259 0
-251 252 259 0
253 -254 260 0
-253 -254 -260 0
253 254 -260 0
-253 254 260 0
255 -256 261 0
-255 -256 -261 0
255 256 -261 0
-255 256 261 0
257 -258 262 0
-257 -258 -262 0
257 258 -262 0
-257 258 262 0
259 -260 263 0
-259 -260 -263 0
259 260 -263 0
-259 260 263 0
261 -262 264 0
-261 -262 -264 0
261 262 -264 0
-261 262 264 0
263 264 0
-263 -264 0
1 3 265 0
-1 3 -265 0
1 -3 -265 0
-1 -3 265 0
-6 8 266 0
6 8 -266 0
-6 -8 -266 0
6 -8 266 0
-9 -12 267 0
9 -12 -267 0
-9 12 -267 0
9 12 267 0
-13 -14 268 0
13 -14 -268 0
-13 14 -268 0
13 14 268 0
-15 16 269 0
15 16 -269 0
-15 -16 -269 0
15 -16 269 0
-18 -20 270 0
18 -20 -270 0
-18 20 -270 0
18 20 270 0
21 22 271 0
-21 22 -271 0
21 -22 -271 0
-21 -22 271 0
-24 -25 272 0
24 -25 -272 0
-24 25 -272 0
24 25 272 0
26 37 273 0
-26 37 -273 0
26 -37 -273 0
-26 -37 273 0
-38 -39 274 0
38 -39 -274 0
-38 39 -274 0
38 39 274 0
-40 -42 275 0
40 -42 -275 0
-40 42 -275 0
40 42 275 0
47 -48 276 0
-47 -48 -276 0
47 48 -276 0
-47 48 276 0
49 50 277 0
-49 50 -277 0
49 -50 -277 0
-49 -50 277 0
265 -266 278 0
-265 -266 -278 0
265 266 -278 0
-265 266 278 0
267 -268 279 0
-267 -268 -279 0
267 268 -279 0
-267 268 279 0
269 -270 280 0
-269 -270 -280 0
269 270 -280 0
-269 270 280 0
271 -272 281 0
-271 -272 -281 0
271 272 -281 0
-271 272 281 0
273 -274 282 0
-273 -274 -282 0
273 274 -282 0
-273 274 282 0
275 -276 283 0
-275 -276 -283 0
275 276 -283 0
-275 276 283 0
277 -278 284 0
-277 -278 -284 0
277 278 -284 0
-277 278 284 0
279 -280 285 0
-279 -280 -285 0
279 280 -285 0
-279 280 285 0
281 -282 286 0
-281 -282 -286 0
281 282 -286 0
-281 282 286 0
283 -284 287 0
-283 -284 -287 0
283 284 -287 0
-283 284 287 0
285 -286 288 0
-285 -286 -288 0
285 286 -288 0
-285 286 288 0
287 288 0
-287 -288 0
